data/lp_files/pEFS/82_4.lp
\ Model foo
\ LP format - for model browsing. Use MPS format to capture full model detail.
Minimize
  z
Subject To
 allocateEach[1]: x[1,1] + x[2,1] + x[3,1] + x[4,1] + x[5,1] = 1
 allocateEach[2]: x[1,2] + x[2,2] + x[3,2] + x[4,2] + x[5,2] = 1
 allocateAllCash: cashProportion[1] + cashProportion[2] + cashProportion[3]
   + cashProportion[4] + cashProportion[5] = 1
 findWorstP[1,2]: z + 0.3058478101296795 cashProportion[1]
   - 0.3058478101296795 cashProportion[2] + 0.1535356006850991 x[1,1]
   + 0.5406165891852215 x[1,2] - 0.1535356006850991 x[2,1]
   - 0.5406165891852215 x[2,2] >= 0
 findWorstP[1,3]: z + 0.3058478101296795 cashProportion[1]
   - 0.3058478101296795 cashProportion[3] + 0.1535356006850991 x[1,1]
   + 0.5406165891852215 x[1,2] - 0.1535356006850991 x[3,1]
   - 0.5406165891852215 x[3,2] >= 0
 findWorstP[1,4]: z + 0.3058478101296795 cashProportion[1]
   - 0.3058478101296795 cashProportion[4] + 0.1535356006850991 x[1,1]
   + 0.5406165891852215 x[1,2] - 0.1535356006850991 x[4,1]
   - 0.5406165891852215 x[4,2] >= 0
 findWorstP[1,5]: z + 0.3058478101296795 cashProportion[1]
   - 0.3058478101296795 cashProportion[5] + 0.1535356006850991 x[1,1]
   + 0.5406165891852215 x[1,2] - 0.1535356006850991 x[5,1]
   - 0.5406165891852215 x[5,2] >= 0
 findWorstP[2,1]: z - 0.4740235115661737 cashProportion[1]
   + 0.4740235115661737 cashProportion[2] - 0.4886234357224118 x[1,1]
   - 0.0373530527114145 x[1,2] + 0.4886234357224118 x[2,1]
   + 0.0373530527114145 x[2,2] >= 0
 findWorstP[2,3]: z + 0.4740235115661737 cashProportion[2]
   - 0.4740235115661737 cashProportion[3] + 0.4886234357224118 x[2,1]
   + 0.0373530527114145 x[2,2] - 0.4886234357224118 x[3,1]
   - 0.0373530527114145 x[3,2] >= 0
 findWorstP[2,4]: z + 0.4740235115661737 cashProportion[2]
   - 0.4740235115661737 cashProportion[4] + 0.4886234357224118 x[2,1]
   + 0.0373530527114145 x[2,2] - 0.4886234357224118 x[4,1]
   - 0.0373530527114145 x[4,2] >= 0
 findWorstP[2,5]: z + 0.4740235115661737 cashProportion[2]
   - 0.4740235115661737 cashProportion[5] + 0.4886234357224118 x[2,1]
   + 0.0373530527114145 x[2,2] - 0.4886234357224118 x[5,1]
   - 0.0373530527114145 x[5,2] >= 0
 findWorstP[3,1]: z - 0.2162068667300874 cashProportion[1]
   + 0.2162068667300874 cashProportion[3] - 0.0694456455937041 x[1,1]
   - 0.7143474876762087 x[1,2] + 0.0694456455937041 x[3,1]
   + 0.7143474876762087 x[3,2] >= 0
 findWorstP[3,2]: z - 0.2162068667300874 cashProportion[2]
   + 0.2162068667300874 cashProportion[3] - 0.0694456455937041 x[2,1]
   - 0.7143474876762087 x[2,2] + 0.0694456455937041 x[3,1]
   + 0.7143474876762087 x[3,2] >= 0
 findWorstP[3,4]: z + 0.2162068667300874 cashProportion[3]
   - 0.2162068667300874 cashProportion[4] + 0.0694456455937041 x[3,1]
   + 0.7143474876762087 x[3,2] - 0.0694456455937041 x[4,1]
   - 0.7143474876762087 x[4,2] >= 0
 findWorstP[3,5]: z + 0.2162068667300874 cashProportion[3]
   - 0.2162068667300874 cashProportion[5] + 0.0694456455937041 x[3,1]
   + 0.7143474876762087 x[3,2] - 0.0694456455937041 x[5,1]
   - 0.7143474876762087 x[5,2] >= 0
 findWorstP[4,1]: z - 0.1649620587264929 cashProportion[1]
   + 0.1649620587264929 cashProportion[4] - 0.2673705047838997 x[1,1]
   - 0.5676674364896074 x[1,2] + 0.2673705047838997 x[4,1]
   + 0.5676674364896074 x[4,2] >= 0
 findWorstP[4,2]: z - 0.1649620587264929 cashProportion[2]
   + 0.1649620587264929 cashProportion[4] - 0.2673705047838997 x[2,1]
   - 0.5676674364896074 x[2,2] + 0.2673705047838997 x[4,1]
   + 0.5676674364896074 x[4,2] >= 0
 findWorstP[4,3]: z - 0.1649620587264929 cashProportion[3]
   + 0.1649620587264929 cashProportion[4] - 0.2673705047838997 x[3,1]
   - 0.5676674364896074 x[3,2] + 0.2673705047838997 x[4,1]
   + 0.5676674364896074 x[4,2] >= 0
 findWorstP[4,5]: z + 0.1649620587264929 cashProportion[4]
   - 0.1649620587264929 cashProportion[5] + 0.2673705047838997 x[4,1]
   + 0.5676674364896074 x[4,2] - 0.2673705047838997 x[5,1]
   - 0.5676674364896074 x[5,2] >= 0
 findWorstP[5,1]: z - 0.2019712392955243 cashProportion[1]
   + 0.2019712392955243 cashProportion[5] - 0.7492325092906771 x[1,1]
   - 0.0487962514137987 x[1,2] + 0.7492325092906771 x[5,1]
   + 0.0487962514137987 x[5,2] >= 0
 findWorstP[5,2]: z - 0.2019712392955243 cashProportion[2]
   + 0.2019712392955243 cashProportion[5] - 0.7492325092906771 x[2,1]
   - 0.0487962514137987 x[2,2] + 0.7492325092906771 x[5,1]
   + 0.0487962514137987 x[5,2] >= 0
 findWorstP[5,3]: z - 0.2019712392955243 cashProportion[3]
   + 0.2019712392955243 cashProportion[5] - 0.7492325092906771 x[3,1]
   - 0.0487962514137987 x[3,2] + 0.7492325092906771 x[5,1]
   + 0.0487962514137987 x[5,2] >= 0
 findWorstP[5,4]: z - 0.2019712392955243 cashProportion[4]
   + 0.2019712392955243 cashProportion[5] - 0.7492325092906771 x[4,1]
   - 0.0487962514137987 x[4,2] + 0.7492325092906771 x[5,1]
   + 0.0487962514137987 x[5,2] >= 0
Bounds
 z <= 1
 -infinity <= cashProportion[1] <= 1
 -infinity <= cashProportion[2] <= 1
 -infinity <= cashProportion[3] <= 1
 -infinity <= cashProportion[4] <= 1
 -infinity <= cashProportion[5] <= 1
Binaries
 x[1,1] x[1,2] x[2,1] x[2,2] x[3,1] x[3,2] x[4,1] x[4,2] x[5,1] x[5,2]
End
