data/mps_files/q3/82_4.mps
NAME foo
ROWS
 N  OBJ
 E  allocateEach[1]
 E  allocateEach[2]
 E  allocateAllCash
 G  findWorstP[1,2]
 G  findWorstP[1,3]
 G  findWorstP[1,4]
 G  findWorstP[1,5]
 G  findWorstP[2,1]
 G  findWorstP[2,3]
 G  findWorstP[2,4]
 G  findWorstP[2,5]
 G  findWorstP[3,1]
 G  findWorstP[3,2]
 G  findWorstP[3,4]
 G  findWorstP[3,5]
 G  findWorstP[4,1]
 G  findWorstP[4,2]
 G  findWorstP[4,3]
 G  findWorstP[4,5]
 G  findWorstP[5,1]
 G  findWorstP[5,2]
 G  findWorstP[5,3]
 G  findWorstP[5,4]
COLUMNS
    z         OBJ       1
    z         findWorstP[1,2]  1
    z         findWorstP[1,3]  1
    z         findWorstP[1,4]  1
    z         findWorstP[1,5]  1
    z         findWorstP[2,1]  1
    z         findWorstP[2,3]  1
    z         findWorstP[2,4]  1
    z         findWorstP[2,5]  1
    z         findWorstP[3,1]  1
    z         findWorstP[3,2]  1
    z         findWorstP[3,4]  1
    z         findWorstP[3,5]  1
    z         findWorstP[4,1]  1
    z         findWorstP[4,2]  1
    z         findWorstP[4,3]  1
    z         findWorstP[4,5]  1
    z         findWorstP[5,1]  1
    z         findWorstP[5,2]  1
    z         findWorstP[5,3]  1
    z         findWorstP[5,4]  1
    cashProportion[1]  allocateAllCash  1
    cashProportion[1]  findWorstP[1,2]  3.0584781012967949e-01
    cashProportion[1]  findWorstP[1,3]  3.0584781012967949e-01
    cashProportion[1]  findWorstP[1,4]  3.0584781012967949e-01
    cashProportion[1]  findWorstP[1,5]  3.0584781012967949e-01
    cashProportion[1]  findWorstP[2,1]  -4.7402351156617373e-01
    cashProportion[1]  findWorstP[3,1]  -2.1620686673008738e-01
    cashProportion[1]  findWorstP[4,1]  -1.6496205872649292e-01
    cashProportion[1]  findWorstP[5,1]  -2.0197123929552432e-01
    cashProportion[2]  allocateAllCash  1
    cashProportion[2]  findWorstP[1,2]  -3.0584781012967949e-01
    cashProportion[2]  findWorstP[2,1]  4.7402351156617373e-01
    cashProportion[2]  findWorstP[2,3]  4.7402351156617373e-01
    cashProportion[2]  findWorstP[2,4]  4.7402351156617373e-01
    cashProportion[2]  findWorstP[2,5]  4.7402351156617373e-01
    cashProportion[2]  findWorstP[3,2]  -2.1620686673008738e-01
    cashProportion[2]  findWorstP[4,2]  -1.6496205872649292e-01
    cashProportion[2]  findWorstP[5,2]  -2.0197123929552432e-01
    cashProportion[3]  allocateAllCash  1
    cashProportion[3]  findWorstP[1,3]  -3.0584781012967949e-01
    cashProportion[3]  findWorstP[2,3]  -4.7402351156617373e-01
    cashProportion[3]  findWorstP[3,1]  2.1620686673008738e-01
    cashProportion[3]  findWorstP[3,2]  2.1620686673008738e-01
    cashProportion[3]  findWorstP[3,4]  2.1620686673008738e-01
    cashProportion[3]  findWorstP[3,5]  2.1620686673008738e-01
    cashProportion[3]  findWorstP[4,3]  -1.6496205872649292e-01
    cashProportion[3]  findWorstP[5,3]  -2.0197123929552432e-01
    cashProportion[4]  allocateAllCash  1
    cashProportion[4]  findWorstP[1,4]  -3.0584781012967949e-01
    cashProportion[4]  findWorstP[2,4]  -4.7402351156617373e-01
    cashProportion[4]  findWorstP[3,4]  -2.1620686673008738e-01
    cashProportion[4]  findWorstP[4,1]  1.6496205872649292e-01
    cashProportion[4]  findWorstP[4,2]  1.6496205872649292e-01
    cashProportion[4]  findWorstP[4,3]  1.6496205872649292e-01
    cashProportion[4]  findWorstP[4,5]  1.6496205872649292e-01
    cashProportion[4]  findWorstP[5,4]  -2.0197123929552432e-01
    cashProportion[5]  allocateAllCash  1
    cashProportion[5]  findWorstP[1,5]  -3.0584781012967949e-01
    cashProportion[5]  findWorstP[2,5]  -4.7402351156617373e-01
    cashProportion[5]  findWorstP[3,5]  -2.1620686673008738e-01
    cashProportion[5]  findWorstP[4,5]  -1.6496205872649292e-01
    cashProportion[5]  findWorstP[5,1]  2.0197123929552432e-01
    cashProportion[5]  findWorstP[5,2]  2.0197123929552432e-01
    cashProportion[5]  findWorstP[5,3]  2.0197123929552432e-01
    cashProportion[5]  findWorstP[5,4]  2.0197123929552432e-01
    MARKER    'MARKER'                 'INTORG'
    x[1,1]    allocateEach[1]  1
    x[1,1]    findWorstP[1,2]  1.5353560068509911e-01
    x[1,1]    findWorstP[1,3]  1.5353560068509911e-01
    x[1,1]    findWorstP[1,4]  1.5353560068509911e-01
    x[1,1]    findWorstP[1,5]  1.5353560068509911e-01
    x[1,1]    findWorstP[2,1]  -4.8862343572241185e-01
    x[1,1]    findWorstP[3,1]  -6.9445645593704058e-02
    x[1,1]    findWorstP[4,1]  -2.6737050478389973e-01
    x[1,1]    findWorstP[5,1]  -7.4923250929067708e-01
    x[1,2]    allocateEach[2]  1
    x[1,2]    findWorstP[1,2]  5.4061658918522149e-01
    x[1,2]    findWorstP[1,3]  5.4061658918522149e-01
    x[1,2]    findWorstP[1,4]  5.4061658918522149e-01
    x[1,2]    findWorstP[1,5]  5.4061658918522149e-01
    x[1,2]    findWorstP[2,1]  -3.7353052711414488e-02
    x[1,2]    findWorstP[3,1]  -7.1434748767620870e-01
    x[1,2]    findWorstP[4,1]  -5.6766743648960738e-01
    x[1,2]    findWorstP[5,1]  -4.8796251413798682e-02
    x[2,1]    allocateEach[1]  1
    x[2,1]    findWorstP[1,2]  -1.5353560068509911e-01
    x[2,1]    findWorstP[2,1]  4.8862343572241185e-01
    x[2,1]    findWorstP[2,3]  4.8862343572241185e-01
    x[2,1]    findWorstP[2,4]  4.8862343572241185e-01
    x[2,1]    findWorstP[2,5]  4.8862343572241185e-01
    x[2,1]    findWorstP[3,2]  -6.9445645593704058e-02
    x[2,1]    findWorstP[4,2]  -2.6737050478389973e-01
    x[2,1]    findWorstP[5,2]  -7.4923250929067708e-01
    x[2,2]    allocateEach[2]  1
    x[2,2]    findWorstP[1,2]  -5.4061658918522149e-01
    x[2,2]    findWorstP[2,1]  3.7353052711414488e-02
    x[2,2]    findWorstP[2,3]  3.7353052711414488e-02
    x[2,2]    findWorstP[2,4]  3.7353052711414488e-02
    x[2,2]    findWorstP[2,5]  3.7353052711414488e-02
    x[2,2]    findWorstP[3,2]  -7.1434748767620870e-01
    x[2,2]    findWorstP[4,2]  -5.6766743648960738e-01
    x[2,2]    findWorstP[5,2]  -4.8796251413798682e-02
    x[3,1]    allocateEach[1]  1
    x[3,1]    findWorstP[1,3]  -1.5353560068509911e-01
    x[3,1]    findWorstP[2,3]  -4.8862343572241185e-01
    x[3,1]    findWorstP[3,1]  6.9445645593704058e-02
    x[3,1]    findWorstP[3,2]  6.9445645593704058e-02
    x[3,1]    findWorstP[3,4]  6.9445645593704058e-02
    x[3,1]    findWorstP[3,5]  6.9445645593704058e-02
    x[3,1]    findWorstP[4,3]  -2.6737050478389973e-01
    x[3,1]    findWorstP[5,3]  -7.4923250929067708e-01
    x[3,2]    allocateEach[2]  1
    x[3,2]    findWorstP[1,3]  -5.4061658918522149e-01
    x[3,2]    findWorstP[2,3]  -3.7353052711414488e-02
    x[3,2]    findWorstP[3,1]  7.1434748767620870e-01
    x[3,2]    findWorstP[3,2]  7.1434748767620870e-01
    x[3,2]    findWorstP[3,4]  7.1434748767620870e-01
    x[3,2]    findWorstP[3,5]  7.1434748767620870e-01
    x[3,2]    findWorstP[4,3]  -5.6766743648960738e-01
    x[3,2]    findWorstP[5,3]  -4.8796251413798682e-02
    x[4,1]    allocateEach[1]  1
    x[4,1]    findWorstP[1,4]  -1.5353560068509911e-01
    x[4,1]    findWorstP[2,4]  -4.8862343572241185e-01
    x[4,1]    findWorstP[3,4]  -6.9445645593704058e-02
    x[4,1]    findWorstP[4,1]  2.6737050478389973e-01
    x[4,1]    findWorstP[4,2]  2.6737050478389973e-01
    x[4,1]    findWorstP[4,3]  2.6737050478389973e-01
    x[4,1]    findWorstP[4,5]  2.6737050478389973e-01
    x[4,1]    findWorstP[5,4]  -7.4923250929067708e-01
    x[4,2]    allocateEach[2]  1
    x[4,2]    findWorstP[1,4]  -5.4061658918522149e-01
    x[4,2]    findWorstP[2,4]  -3.7353052711414488e-02
    x[4,2]    findWorstP[3,4]  -7.1434748767620870e-01
    x[4,2]    findWorstP[4,1]  5.6766743648960738e-01
    x[4,2]    findWorstP[4,2]  5.6766743648960738e-01
    x[4,2]    findWorstP[4,3]  5.6766743648960738e-01
    x[4,2]    findWorstP[4,5]  5.6766743648960738e-01
    x[4,2]    findWorstP[5,4]  -4.8796251413798682e-02
    x[5,1]    allocateEach[1]  1
    x[5,1]    findWorstP[1,5]  -1.5353560068509911e-01
    x[5,1]    findWorstP[2,5]  -4.8862343572241185e-01
    x[5,1]    findWorstP[3,5]  -6.9445645593704058e-02
    x[5,1]    findWorstP[4,5]  -2.6737050478389973e-01
    x[5,1]    findWorstP[5,1]  7.4923250929067708e-01
    x[5,1]    findWorstP[5,2]  7.4923250929067708e-01
    x[5,1]    findWorstP[5,3]  7.4923250929067708e-01
    x[5,1]    findWorstP[5,4]  7.4923250929067708e-01
    x[5,2]    allocateEach[2]  1
    x[5,2]    findWorstP[1,5]  -5.4061658918522149e-01
    x[5,2]    findWorstP[2,5]  -3.7353052711414488e-02
    x[5,2]    findWorstP[3,5]  -7.1434748767620870e-01
    x[5,2]    findWorstP[4,5]  -5.6766743648960738e-01
    x[5,2]    findWorstP[5,1]  4.8796251413798682e-02
    x[5,2]    findWorstP[5,2]  4.8796251413798682e-02
    x[5,2]    findWorstP[5,3]  4.8796251413798682e-02
    x[5,2]    findWorstP[5,4]  4.8796251413798682e-02
    MARKER    'MARKER'                 'INTEND'
RHS
    RHS1      allocateEach[1]  1
    RHS1      allocateEach[2]  1
    RHS1      allocateAllCash  1
BOUNDS
 UP BND1      z         1
 MI BND1      cashProportion[1]
 UP BND1      cashProportion[1]  1
 MI BND1      cashProportion[2]
 UP BND1      cashProportion[2]  1
 MI BND1      cashProportion[3]
 UP BND1      cashProportion[3]  1
 MI BND1      cashProportion[4]
 UP BND1      cashProportion[4]  1
 MI BND1      cashProportion[5]
 UP BND1      cashProportion[5]  1
 BV BND1      x[1,1]  
 BV BND1      x[1,2]  
 BV BND1      x[2,1]  
 BV BND1      x[2,2]  
 BV BND1      x[3,1]  
 BV BND1      x[3,2]  
 BV BND1      x[4,1]  
 BV BND1      x[4,2]  
 BV BND1      x[5,1]  
 BV BND1      x[5,2]  
ENDATA
